(declare-const x0 Bool)
(declare-const x1 Bool)
(declare-const x2 Bool)
(declare-const x3 Bool)
(declare-const x4 Bool)
(declare-const x5 Bool)
(declare-const x6 Bool)
(declare-const x7 Bool)
(declare-const x8 Bool)
(declare-const x9 Bool)
(declare-const x10 Bool)
(declare-const y0 Real)
(declare-const y1 Real)
(declare-const y2 Real)
(declare-const y3 Real)
(declare-const y4 Real)
(declare-const y5 Real)
(declare-const y6 Real)
(declare-const y7 Real)
(declare-const y8 Real)
(declare-const y9 Real)
(declare-const y10 Real)
(declare-const y11 Real)
(declare-const y12 Real)
(declare-const y13 Real)
(declare-const y14 Real)
(declare-const y15 Real)
(declare-const y16 Real)
(declare-const y17 Real)
(declare-const y18 Real)
(declare-const y19 Real)
(declare-const y20 Real)
(declare-const y21 Real)
(declare-const y22 Real)
(declare-const y23 Real)
(declare-const y24 Real)
(declare-const y25 Real)
(declare-const y26 Real)
(declare-const y27 Real)
(declare-const y28 Real)
(declare-const y29 Real)
(declare-const y30 Real)
(declare-const y31 Real)
(declare-const y32 Real)
(declare-const y33 Real)
(declare-const y34 Real)
(declare-const y35 Real)
(declare-const y36 Real)
(assert (and (= 37 y13) (and (< 85 58) (< 22 y1))))
(assert (and (and (= x9 x4) (and (and (or false false) x1) (or false false))) (or false x10)))
(assert (< y7 y6))
(assert (or (< (+ 63 27) 75) (or x5 x7)))
(assert (or (< (+ y2 37) y21) (and x7 x5)))
(assert (or (and x5 x1) (= 8 y28)))
(assert (or (or x1 false) (and x6 (and true false))))
(assert (or false false))
(assert true)
(assert (< 74 (+ y3 (+ y0 y6))))
(check-sat)
